000 000 000 000 000 000 000 000 000 000 000 000 000 000 000 000 000 000 000 000 000 -99 000 000 000 000 -99 000 -99 -99 000
000 000 000 000 000 000 000 000 000 000 000 000 000 000 000 000 000 000 000 000 -99 000 000 000 000 000 000 000 -99 -99 000
000 000 000 000 000 001 001 000 000 000 000 000 000 000 000 000 000 000 000 -99 -99 -99 000 000 000 000 000 000 000 -99 000
000 000 000 000 000 000 001 000 000 000 000 000 000 000 000 000 000 000 000 000 000 -99 000 000 000 000 000 000 000 -99 000
000 000 000 000 000 000 000 000 000 000 000 000 000 000 -99 -99 000 000 000 000 000 000 000 000 000 000 004 005 001 002 000
001 000 000 000 000 000 000 000 000 000 000 000 000 000 -99 -99 000 000 000 000 000 000 000 000 000 000 004 010 003 004 000
003 001 000 000 000 000 000 000 000 000 000 000 000 000 000 000 000 000 000 000 000 000 000 000 000 001 003 012 006 010 002
003 002 001 001 000 000 000 000 000 000 000 000 000 000 000 000 000 000 000 000 000 -99 000 000 000 001 003 006 004 012 003
001 001 002 001 001 001 001 000 000 000 000 000 000 000 000 000 000 000 000 000 000 000 000 000 000 001 002 003 007 010 005
000 001 002 002 001 001 001 001 001 001 000 000 000 000 000 000 000 000 000 000 000 000 -99 -99 000 000 001 003 005 004 005
000 000 001 001 001 001 001 002 001 001 001 000 000 000 000 000 000 000 000 000 000 000 -99 000 000 001 001 003 003 003 004
000 000 000 001 001 001 002 003 002 001 001 001 000 000 000 000 000 000 000 000 000 000 -99 000 000 001 001 001 003 002 002
000 000 000 000 001 001 002 001 001 000 001 001 001 000 000 000 000 000 000 000 000 000 -99 000 000 000 000 001 001 002 002
000 000 000 000 001 001 001 001 000 000 001 001 001 000 000 000 000 000 000 000 000 000 000 000 000 000 000 000 001 001 002
000 000 000 000 000 000 000 000 000 000 001 001 001 001 001 000 000 000 000 000 000 000 000 000 000 000 000 000 000 001 001
000 -99 000 000 000 000 000 000 000 001 001 002 001 001 000 000 000 000 000 000 000 000 -99 000 000 000 000 000 000 000 001
000 000 000 000 000 000 000 000 000 000 000 002 001 001 000 000 000 000 000 000 000 000 000 000 000 000 000 000 000 000 000
000 000 000 000 -99 000 000 000 000 000 000 001 002 001 001 000 000 000 000 001 001 000 000 000 000 000 -99 -99 -99 000 000
000 000 000 -99 -99 -99 000 000 000 000 000 001 001 001 001 000 000 000 000 000 000 000 000 -99 000 -99 -99 -99 -99 000 -99
000 000 000 000 000 -99 000 000 000 000 000 000 000 001 002 001 001 000 000 000 000 000 000 -99 000 -99 -99 -99 -99 000 -99
000 000 000 000 000 000 -99 000 000 000 000 000 000 000 000 001 000 000 000 000 000 000 000 -99 -99 000 000 -99 -99 -99 -99
000 000 000 000 000 000 -99 000 000 000 000 000 000 000 000 000 000 000 000 000 000 000 000 -99 -99 -99 -99 -99 -99 -99 -99
000 000 000 000 000 000 -99 000 000 000 000 000 000 000 000 000 000 000 000 000 000 000 000 -99 -99 -99 -99 -99 -99 -99 -99
000 000 000 000 000 000 000 000 000 -99 -99 -99 000 000 000 000 000 000 000 000 000 000 000 -99 -99 -99 -99 -99 -99 -99 -99
000 000 000 000 000 000 000 000 000 -99 -99 -99 000 000 000 000 000 000 000 000 000 000 000 -99 -99 -99 -99 -99 -99 -99 -99
000 000 000 000 000 000 000 000 000 000 -99 -99 -99 000 000 000 000 000 000 000 000 000 000 -99 -99 -99 -99 -99 -99 -99 -99
000 000 000 000 000 000 000 000 000 000 -99 -99 -99 000 000 000 000 000 000 000 000 000 000 -99 -99 -99 -99 -99 -99 -99 -99
000 000 000 000 000 000 000 000 000 000 -99 -99 -99 -99 000 000 000 000 000 000 000 000 -99 -99 -99 -99 -99 -99 -99 -99 -99
000 000 000 000 000 000 -99 000 000 000 000 -99 -99 000 000 000 000 000 000 000 -99 000 -99 -99 -99 -99 -99 -99 -99 -99 -99
000 000 000 000 000 000 -99 000 000 000 000 -99 000 000 000 000 000 000 000 000 -99 000 -99 -99 -99 -99 -99 -99 -99 -99 -99
-99 000 000 000 000 -99 000 000 000 000 -99 000 001 001 001 001 001 001 000 000 000 000 001 000 000 000 -99 -99 -99 -99 -99
000 000 000 000 000 -99 -99 000 000 000 -99 000 004 002 005 002 010 001 000 001 001 000 001 000 000 000 002 -99 002 003 001
000 000 000 000 000 000 000 000 000 -99 000 000 006 004 005 006 009 003 001 002 002 002 001 001 001 001 002 003 002 004 002
000 000 000 000 000 000 000 000 000 000 000 002 006 004 008 008 010 006 005 004 002 002 002 001 001 001 003 004 006 006 006
000 000 000 000 000 000 000 000 000 000 000 002 003 003 006 004 012 009 011 004 002 002 002 002 003 003 003 005 010 010 010
000 000 000 000 000 000 000 000 000 000 001 000 001 003 008 007 010 008 008 005 002 002 001 001 003 001 003 007 014 009 004
000 000 000 000 000 000 000 000 000 000 000 000 001 003 007 004 007 004 006 003 002 002 001 001 001 001 001 004 007 003 003
000 001 000 000 000 000 000 000 000 000 000 000 001 003 002 003 004 003 002 002 002 002 001 000 000 000 000 006 005 002 004
000 000 000 000 000 000 000 000 000 000 000 000 000 002 001 002 002 002 002 001 004 002 001 001 000 000 000 001 002 001 006
000 000 000 000 000 000 000 000 000 000 000 000 000 000 000 001 002 002 001 000 003 003 001 001 000 000 000 000 000 001 006
000 000 000 000 000 000 000 000 000 000 000 000 000 000 000 001 002 001 001 000 003 002 001 001 001 000 000 000 000 001 001
000 000 000 000 000 000 000 000 000 000 000 000 001 001 003 003 001 000 000 000 001 001 001 001 000 000 000 000 000 000 001
000 000 000 000 000 000 000 000 000 000 000 000 001 001 003 006 004 002 000 000 000 001 001 000 000 000 000 000 000 000 001
000 000 000 000 000 000 000 000 000 000 000 000 000 001 004 006 003 002 000 000 000 000 000 000 000 000 000 000 000 -99 001
000 000 -99 -99 000 000 000 000 000 000 000 000 000 000 003 002 001 001 000 000 000 000 000 000 000 000 000 000 000 -99 000
000 -99 -99 000 000 -99 -99 -99 000 000 000 000 000 000 000 000 000 000 000 000 000 000 000 000 000 000 000 000 -99 -99 000
000 -99 000 000 000 000 -99 -99 000 000 000 000 000 000 000 000 000 000 000 000 -99 000 000 000 000 000 000 000 000 000 000
-99 000 000 000 000 000 -99 -99 000 000 000 000 000 000 000 000 000 000 000 000 -99 000 000 000 000 000 000 000 000 -99 -99
-99 000 000 000 000 -99 -99 -99 000 000 000 000 000 000 000 000 000 001 000 000 -99 -99 000 000 -99 000 000 000 -99 -99 -99
-99 000 000 000 -99 -99 -99 -99 000 000 -99 -99 -99 000 000 -99 000 002 000 000 000 000 -99 -99 -99 -99 000 000 -99 -99 -99
-99 000 000 000 000 -99 -99 000 000 -99 -99 -99 000 000 000 000 001 001 000 000 000 000 -99 -99 -99 -99 -99 -99 -99 -99 -99
-99 -99 -99 -99 -99 -99 000 000 000 -99 -99 -99 000 000 -99 000 000 002 000 000 000 -99 -99 -99 -99 -99 -99 -99 -99 -99 -99
-99 -99 -99 -99 -99 -99 000 000 -99 -99 -99 -99 -99 -99 000 000 001 002 002 000 000 000 -99 -99 -99 -99 -99 -99 -99 -99 -99
-99 -99 -99 -99 -99 -99 -99 -99 -99 -99 -99 -99 -99 000 000 000 002 002 001 000 000 000 -99 -99 -99 -99 -99 -99 -99 -99 -99
-99 -99 -99 -99 -99 -99 -99 -99 -99 -99 -99 -99 000 000 000 000 000 001 002 002 000 000 000 -99 -99 -99 -99 -99 -99 -99 -99
